c Standarized MaxSat Instance
c{
c "sha1sum": "e59ec1e1d2544273295f30ce3382f868d21ebc52",
c "nvars": 140,
c "ncls": 1260,
c "nhards": 0,
c "nhard_len_stats":
c    { "min": 0, "max": 0, "ave": 0.00,
c      "stddev": 0.00 },
c "nsofts": 1260,
c "nsoft_len_stats":
c    { "min": 2, "max": 2, "ave": 2.00,
c      "stddev": 0.00 },
c "nsoft_wts": 1,
c "soft_wt_stats":
c    { "min": 1, "max": 1, "ave": 1.00,
c      "stddev": 0.00 }
c}
c------------------------------------------------------------
c strEdges: 189  randomEdges: 441 
c degrees:  2  3 
c girth: 10 max: 8.032766  
c Hgirth mixed MAXCUT instance
c generated from an undirected graph
c to solve unweighted MaxCut
p wcnf 140 1260 1261
1 140 1 0
1 -140 -1 0
1 140 93 0
1 -140 -93 0
1 120 58 0
1 -120 -58 0
1 120 62 0
1 -120 -62 0
1 120 89 0
1 -120 -89 0
1 103 24 0
1 -103 -24 0
1 103 89 0
1 -103 -89 0
1 9 46 0
1 -9 -46 0
1 9 136 0
1 -9 -136 0
1 9 96 0
1 -9 -96 0
1 32 12 0
1 -32 -12 0
1 32 53 0
1 -32 -53 0
1 32 100 0
1 -32 -100 0
1 41 40 0
1 -41 -40 0
1 41 30 0
1 -41 -30 0
1 41 111 0
1 -41 -111 0
1 131 84 0
1 -131 -84 0
1 131 71 0
1 -131 -71 0
1 131 92 0
1 -131 -92 0
1 115 28 0
1 -115 -28 0
1 115 11 0
1 -115 -11 0
1 115 110 0
1 -115 -110 0
1 139 29 0
1 -139 -29 0
1 139 62 0
1 -139 -62 0
1 139 127 0
1 -139 -127 0
1 107 66 0
1 -107 -66 0
1 107 64 0
1 -107 -64 0
1 31 108 0
1 -31 -108 0
1 31 30 0
1 -31 -30 0
1 31 12 0
1 -31 -12 0
1 23 112 0
1 -23 -112 0
1 23 58 0
1 -23 -58 0
1 122 53 0
1 -122 -53 0
1 122 28 0
1 -122 -28 0
1 122 136 0
1 -122 -136 0
1 86 6 0
1 -86 -6 0
1 86 79 0
1 -86 -79 0
1 59 3 0
1 -59 -3 0
1 59 67 0
1 -59 -67 0
1 113 71 0
1 -113 -71 0
1 113 63 0
1 -113 -63 0
1 113 8 0
1 -113 -8 0
1 105 47 0
1 -105 -47 0
1 105 66 0
1 -105 -66 0
1 105 58 0
1 -105 -58 0
1 81 37 0
1 -81 -37 0
1 81 12 0
1 -81 -12 0
1 81 15 0
1 -81 -15 0
1 90 78 0
1 -90 -78 0
1 90 127 0
1 -90 -127 0
1 87 134 0
1 -87 -134 0
1 87 29 0
1 -87 -29 0
1 87 42 0
1 -87 -42 0
1 17 101 0
1 -17 -101 0
1 17 78 0
1 -17 -78 0
1 17 61 0
1 -17 -61 0
1 68 4 0
1 -68 -4 0
1 68 121 0
1 -68 -121 0
1 43 130 0
1 -43 -130 0
1 43 132 0
1 -43 -132 0
1 43 47 0
1 -43 -47 0
1 91 89 0
1 -91 -89 0
1 91 84 0
1 -91 -84 0
1 91 99 0
1 -91 -99 0
1 106 99 0
1 -106 -99 0
1 106 77 0
1 -106 -77 0
1 106 104 0
1 -106 -104 0
1 125 100 0
1 -125 -100 0
1 125 117 0
1 -125 -117 0
1 125 138 0
1 -125 -138 0
1 82 15 0
1 -82 -15 0
1 82 14 0
1 -82 -14 0
1 85 50 0
1 -85 -50 0
1 85 1 0
1 -85 -1 0
1 85 61 0
1 -85 -61 0
1 38 128 0
1 -38 -128 0
1 38 14 0
1 -38 -14 0
1 55 111 0
1 -55 -111 0
1 55 128 0
1 -55 -128 0
1 72 110 0
1 -72 -110 0
1 72 101 0
1 -72 -101 0
1 72 6 0
1 -72 -6 0
1 69 73 0
1 -69 -73 0
1 69 110 0
1 -69 -110 0
1 69 29 0
1 -69 -29 0
1 25 136 0
1 -25 -136 0
1 25 75 0
1 -25 -75 0
1 25 50 0
1 -25 -50 0
1 10 80 0
1 -10 -80 0
1 10 15 0
1 -10 -15 0
1 10 49 0
1 -10 -49 0
1 129 119 0
1 -129 -119 0
1 129 44 0
1 -129 -44 0
1 129 46 0
1 -129 -46 0
1 97 127 0
1 -97 -127 0
1 97 135 0
1 -97 -135 0
1 97 119 0
1 -97 -119 0
1 65 64 0
1 -65 -64 0
1 65 11 0
1 -65 -11 0
1 102 49 0
1 -102 -49 0
1 102 3 0
1 -102 -3 0
1 102 63 0
1 -102 -63 0
1 70 61 0
1 -70 -61 0
1 70 66 0
1 -70 -66 0
1 70 71 0
1 -70 -71 0
1 5 109 0
1 -5 -109 0
1 5 112 0
1 -5 -112 0
1 5 77 0
1 -5 -77 0
1 124 67 0
1 -124 -67 0
1 124 137 0
1 -124 -137 0
1 57 8 0
1 -57 -8 0
1 57 121 0
1 -57 -121 0
1 57 128 0
1 -57 -128 0
1 39 118 0
1 -39 -118 0
1 39 135 0
1 -39 -135 0
1 39 109 0
1 -39 -109 0
1 60 11 0
1 -60 -11 0
1 60 4 0
1 -60 -4 0
1 60 24 0
1 -60 -24 0
1 19 52 0
1 -19 -52 0
1 19 47 0
1 -19 -47 0
1 19 123 0
1 -19 -123 0
1 98 42 0
1 -98 -42 0
1 98 13 0
1 -98 -13 0
1 2 121 0
1 -2 -121 0
1 2 52 0
1 -2 -52 0
1 2 101 0
1 -2 -101 0
1 48 79 0
1 -48 -79 0
1 48 138 0
1 -48 -138 0
1 18 14 0
1 -18 -14 0
1 18 78 0
1 -18 -78 0
1 54 44 0
1 -54 -44 0
1 54 108 0
1 -54 -108 0
1 54 42 0
1 -54 -42 0
1 34 116 0
1 -34 -116 0
1 34 137 0
1 -34 -137 0
1 34 92 0
1 -34 -92 0
1 51 104 0
1 -51 -104 0
1 51 80 0
1 -51 -80 0
1 51 64 0
1 -51 -64 0
1 133 62 0
1 -133 -62 0
1 133 37 0
1 -133 -37 0
1 20 92 0
1 -20 -92 0
1 20 118 0
1 -20 -118 0
1 20 37 0
1 -20 -37 0
1 21 30 0
1 -21 -30 0
1 21 1 0
1 -21 -1 0
1 45 88 0
1 -45 -88 0
1 45 80 0
1 -45 -80 0
1 45 132 0
1 -45 -132 0
1 27 75 0
1 -27 -75 0
1 27 123 0
1 -27 -123 0
1 27 7 0
1 -27 -7 0
1 126 117 0
1 -126 -117 0
1 126 96 0
1 -126 -96 0
1 126 52 0
1 -126 -52 0
1 114 96 0
1 -114 -96 0
1 114 40 0
1 -114 -40 0
1 114 73 0
1 -114 -73 0
1 76 16 0
1 -76 -16 0
1 76 67 0
1 -76 -67 0
1 76 13 0
1 -76 -13 0
1 36 135 0
1 -36 -135 0
1 36 130 0
1 -36 -130 0
1 36 40 0
1 -36 -40 0
1 94 93 0
1 -94 -93 0
1 94 3 0
1 -94 -3 0
1 94 130 0
1 -94 -130 0
1 56 7 0
1 -56 -7 0
1 56 88 0
1 -56 -88 0
1 56 134 0
1 -56 -134 0
1 26 123 0
1 -26 -123 0
1 26 116 0
1 -26 -116 0
1 74 63 0
1 -74 -63 0
1 74 79 0
1 -74 -79 0
1 74 46 0
1 -74 -46 0
1 35 137 0
1 -35 -137 0
1 35 6 0
1 -35 -6 0
1 95 13 0
1 -95 -13 0
1 95 4 0
1 -95 -4 0
1 33 138 0
1 -33 -138 0
1 33 109 0
1 -33 -109 0
1 33 16 0
1 -33 -16 0
1 83 77 0
1 -83 -77 0
1 83 111 0
1 -83 -111 0
1 83 28 0
1 -83 -28 0
1 22 132 0
1 -22 -132 0
1 22 24 0
1 -22 -24 0
1 22 108 0
1 -22 -108 0
1 53 4 0
1 -53 -4 0
1 3 50 0
1 -3 -50 0
1 74 13 0
1 -74 -13 0
1 105 68 0
1 -105 -68 0
1 133 36 0
1 -133 -36 0
1 69 5 0
1 -69 -5 0
1 81 52 0
1 -81 -52 0
1 85 29 0
1 -85 -29 0
1 113 22 0
1 -113 -22 0
1 53 109 0
1 -53 -109 0
1 100 128 0
1 -100 -128 0
1 105 27 0
1 -105 -27 0
1 131 119 0
1 -131 -119 0
1 6 80 0
1 -6 -80 0
1 39 92 0
1 -39 -92 0
1 78 63 0
1 -78 -63 0
1 58 128 0
1 -58 -128 0
1 97 7 0
1 -97 -7 0
1 134 14 0
1 -134 -14 0
1 72 83 0
1 -72 -83 0
1 59 87 0
1 -59 -87 0
1 118 92 0
1 -118 -92 0
1 17 70 0
1 -17 -70 0
1 54 4 0
1 -54 -4 0
1 47 101 0
1 -47 -101 0
1 41 124 0
1 -41 -124 0
1 130 119 0
1 -130 -119 0
1 90 74 0
1 -90 -74 0
1 101 49 0
1 -101 -49 0
1 91 112 0
1 -91 -112 0
1 72 66 0
1 -72 -66 0
1 10 8 0
1 -10 -8 0
1 114 66 0
1 -114 -66 0
1 35 64 0
1 -35 -64 0
1 37 96 0
1 -37 -96 0
1 89 30 0
1 -89 -30 0
1 55 40 0
1 -55 -40 0
1 43 136 0
1 -43 -136 0
1 68 61 0
1 -68 -61 0
1 122 100 0
1 -122 -100 0
1 57 132 0
1 -57 -132 0
1 35 88 0
1 -35 -88 0
1 5 16 0
1 -5 -16 0
1 53 138 0
1 -53 -138 0
1 12 66 0
1 -12 -66 0
1 45 127 0
1 -45 -127 0
1 26 42 0
1 -26 -42 0
1 31 76 0
1 -31 -76 0
1 25 16 0
1 -25 -16 0
1 2 104 0
1 -2 -104 0
1 114 13 0
1 -114 -13 0
1 22 58 0
1 -22 -58 0
1 140 24 0
1 -140 -24 0
1 140 69 0
1 -140 -69 0
1 65 57 0
1 -65 -57 0
1 105 39 0
1 -105 -39 0
1 139 91 0
1 -139 -91 0
1 98 78 0
1 -98 -78 0
1 71 135 0
1 -71 -135 0
1 55 119 0
1 -55 -119 0
1 9 127 0
1 -9 -127 0
1 61 42 0
1 -61 -42 0
1 94 49 0
1 -94 -49 0
1 41 70 0
1 -41 -70 0
1 31 21 0
1 -31 -21 0
1 111 92 0
1 -111 -92 0
1 103 128 0
1 -103 -128 0
1 12 4 0
1 -12 -4 0
1 115 89 0
1 -115 -89 0
1 68 104 0
1 -68 -104 0
1 69 127 0
1 -69 -127 0
1 103 114 0
1 -103 -114 0
1 101 110 0
1 -101 -110 0
1 26 58 0
1 -26 -58 0
1 2 53 0
1 -2 -53 0
1 126 134 0
1 -126 -134 0
1 127 135 0
1 -127 -135 0
1 114 61 0
1 -114 -61 0
1 131 124 0
1 -131 -124 0
1 31 58 0
1 -31 -58 0
1 22 37 0
1 -22 -37 0
1 131 20 0
1 -131 -20 0
1 131 82 0
1 -131 -82 0
1 69 13 0
1 -69 -13 0
1 23 54 0
1 -23 -54 0
1 74 101 0
1 -74 -101 0
1 31 53 0
1 -31 -53 0
1 81 87 0
1 -81 -87 0
1 45 58 0
1 -45 -58 0
1 109 67 0
1 -109 -67 0
1 114 3 0
1 -114 -3 0
1 116 13 0
1 -116 -13 0
1 102 58 0
1 -102 -58 0
1 25 49 0
1 -25 -49 0
1 139 19 0
1 -139 -19 0
1 23 34 0
1 -23 -34 0
1 32 19 0
1 -32 -19 0
1 90 48 0
1 -90 -48 0
1 97 49 0
1 -97 -49 0
1 131 31 0
1 -131 -31 0
1 126 58 0
1 -126 -58 0
1 37 116 0
1 -37 -116 0
1 113 98 0
1 -113 -98 0
1 59 19 0
1 -59 -19 0
1 106 26 0
1 -106 -26 0
1 31 24 0
1 -31 -24 0
1 122 50 0
1 -122 -50 0
1 140 116 0
1 -140 -116 0
1 57 104 0
1 -57 -104 0
1 113 110 0
1 -113 -110 0
1 17 116 0
1 -17 -116 0
1 38 3 0
1 -38 -3 0
1 38 119 0
1 -38 -119 0
1 57 108 0
1 -57 -108 0
1 11 42 0
1 -11 -42 0
1 26 33 0
1 -26 -33 0
1 19 134 0
1 -19 -134 0
1 65 71 0
1 -65 -71 0
1 43 123 0
1 -43 -123 0
1 21 24 0
1 -21 -24 0
1 34 3 0
1 -34 -3 0
1 106 12 0
1 -106 -12 0
1 71 13 0
1 -71 -13 0
1 74 78 0
1 -74 -78 0
1 107 56 0
1 -107 -56 0
1 100 92 0
1 -100 -92 0
1 54 21 0
1 -54 -21 0
1 113 106 0
1 -113 -106 0
1 20 96 0
1 -20 -96 0
1 10 61 0
1 -10 -61 0
1 10 48 0
1 -10 -48 0
1 26 99 0
1 -26 -99 0
1 97 50 0
1 -97 -50 0
1 10 35 0
1 -10 -35 0
1 29 138 0
1 -29 -138 0
1 89 50 0
1 -89 -50 0
1 48 7 0
1 -48 -7 0
1 31 1 0
1 -31 -1 0
1 72 71 0
1 -72 -71 0
1 100 136 0
1 -100 -136 0
1 30 123 0
1 -30 -123 0
1 91 123 0
1 -91 -123 0
1 39 114 0
1 -39 -114 0
1 106 112 0
1 -106 -112 0
1 49 7 0
1 -49 -7 0
1 2 16 0
1 -2 -16 0
1 18 93 0
1 -18 -93 0
1 87 85 0
1 -87 -85 0
1 2 92 0
1 -2 -92 0
1 46 64 0
1 -46 -64 0
1 124 92 0
1 -124 -92 0
1 23 36 0
1 -23 -36 0
1 50 96 0
1 -50 -96 0
1 120 79 0
1 -120 -79 0
1 105 133 0
1 -105 -133 0
1 107 72 0
1 -107 -72 0
1 86 108 0
1 -86 -108 0
1 17 91 0
1 -17 -91 0
1 97 36 0
1 -97 -36 0
1 25 7 0
1 -25 -7 0
1 78 117 0
1 -78 -117 0
1 34 100 0
1 -34 -100 0
1 58 73 0
1 -58 -73 0
1 31 121 0
1 -31 -121 0
1 9 31 0
1 -9 -31 0
1 17 19 0
1 -17 -19 0
1 73 117 0
1 -73 -117 0
1 42 117 0
1 -42 -117 0
1 41 93 0
1 -41 -93 0
1 79 132 0
1 -79 -132 0
1 129 48 0
1 -129 -48 0
1 81 2 0
1 -81 -2 0
1 56 46 0
1 -56 -46 0
1 120 43 0
1 -120 -43 0
1 10 53 0
1 -10 -53 0
1 2 84 0
1 -2 -84 0
1 102 104 0
1 -102 -104 0
1 5 76 0
1 -5 -76 0
1 31 42 0
1 -31 -42 0
1 20 3 0
1 -20 -3 0
1 140 29 0
1 -140 -29 0
1 106 57 0
1 -106 -57 0
1 131 36 0
1 -131 -36 0
1 39 3 0
1 -39 -3 0
1 44 92 0
1 -44 -92 0
1 113 130 0
1 -113 -130 0
1 84 63 0
1 -84 -63 0
1 71 138 0
1 -71 -138 0
1 10 44 0
1 -10 -44 0
1 81 138 0
1 -81 -138 0
1 130 135 0
1 -130 -135 0
1 119 121 0
1 -119 -121 0
1 34 134 0
1 -34 -134 0
1 70 130 0
1 -70 -130 0
1 114 84 0
1 -114 -84 0
1 76 75 0
1 -76 -75 0
1 140 42 0
1 -140 -42 0
1 120 59 0
1 -120 -59 0
1 39 53 0
1 -39 -53 0
1 65 49 0
1 -65 -49 0
1 57 136 0
1 -57 -136 0
1 76 111 0
1 -76 -111 0
1 90 70 0
1 -90 -70 0
1 140 131 0
1 -140 -131 0
1 102 79 0
1 -102 -79 0
1 81 55 0
1 -81 -55 0
1 70 64 0
1 -70 -64 0
1 39 67 0
1 -39 -67 0
1 84 137 0
1 -84 -137 0
1 118 7 0
1 -118 -7 0
1 115 54 0
1 -115 -54 0
1 40 93 0
1 -40 -93 0
1 85 47 0
1 -85 -47 0
1 82 55 0
1 -82 -55 0
1 95 118 0
1 -95 -118 0
1 57 3 0
1 -57 -3 0
1 38 124 0
1 -38 -124 0
1 87 100 0
1 -87 -100 0
1 120 118 0
1 -120 -118 0
1 69 11 0
1 -69 -11 0
1 23 42 0
1 -23 -42 0
1 23 75 0
1 -23 -75 0
1 55 108 0
1 -55 -108 0
1 73 137 0
1 -73 -137 0
1 120 57 0
1 -120 -57 0
1 37 132 0
1 -37 -132 0
1 24 101 0
1 -24 -101 0
1 140 126 0
1 -140 -126 0
1 8 88 0
1 -8 -88 0
1 124 71 0
1 -124 -71 0
1 2 1 0
1 -2 -1 0
1 113 109 0
1 -113 -109 0
1 51 93 0
1 -51 -93 0
1 115 127 0
1 -115 -127 0
1 66 137 0
1 -66 -137 0
1 90 19 0
1 -90 -19 0
1 131 3 0
1 -131 -3 0
1 39 62 0
1 -39 -62 0
1 103 98 0
1 -103 -98 0
1 72 33 0
1 -72 -33 0
1 78 138 0
1 -78 -138 0
1 12 119 0
1 -12 -119 0
1 70 114 0
1 -70 -114 0
1 20 132 0
1 -20 -132 0
1 73 104 0
1 -73 -104 0
1 41 49 0
1 -41 -49 0
1 107 31 0
1 -107 -31 0
1 122 89 0
1 -122 -89 0
1 120 37 0
1 -120 -37 0
1 51 121 0
1 -51 -121 0
1 87 77 0
1 -87 -77 0
1 65 118 0
1 -65 -118 0
1 85 49 0
1 -85 -49 0
1 10 117 0
1 -10 -117 0
1 107 52 0
1 -107 -52 0
1 110 132 0
1 -110 -132 0
1 80 118 0
1 -80 -118 0
1 15 63 0
1 -15 -63 0
1 54 123 0
1 -54 -123 0
1 3 89 0
1 -3 -89 0
1 129 35 0
1 -129 -35 0
1 131 48 0
1 -131 -48 0
1 31 52 0
1 -31 -52 0
1 19 44 0
1 -19 -44 0
1 5 118 0
1 -5 -118 0
1 58 138 0
1 -58 -138 0
1 64 135 0
1 -64 -135 0
1 97 84 0
1 -97 -84 0
1 50 11 0
1 -50 -11 0
1 59 91 0
1 -59 -91 0
1 17 14 0
1 -17 -14 0
1 37 111 0
1 -37 -111 0
1 1 11 0
1 -1 -11 0
1 67 52 0
1 -67 -52 0
1 32 107 0
1 -32 -107 0
1 46 99 0
1 -46 -99 0
1 65 3 0
1 -65 -3 0
1 66 135 0
1 -66 -135 0
1 109 13 0
1 -109 -13 0
1 83 53 0
1 -83 -53 0
1 67 88 0
1 -67 -88 0
1 91 56 0
1 -91 -56 0
1 86 137 0
1 -86 -137 0
1 28 78 0
1 -28 -78 0
1 106 76 0
1 -106 -76 0
1 32 46 0
1 -32 -46 0
1 86 47 0
1 -86 -47 0
1 131 91 0
1 -131 -91 0
1 67 132 0
1 -67 -132 0
1 87 121 0
1 -87 -121 0
1 39 123 0
1 -39 -123 0
1 47 127 0
1 -47 -127 0
1 34 108 0
1 -34 -108 0
1 24 3 0
1 -24 -3 0
1 113 74 0
1 -113 -74 0
1 5 73 0
1 -5 -73 0
1 131 66 0
1 -131 -66 0
1 101 77 0
1 -101 -77 0
1 99 62 0
1 -99 -62 0
1 15 119 0
1 -15 -119 0
1 36 50 0
1 -36 -50 0
1 94 118 0
1 -94 -118 0
1 32 70 0
1 -32 -70 0
1 107 46 0
1 -107 -46 0
1 59 83 0
1 -59 -83 0
1 60 2 0
1 -60 -2 0
1 55 47 0
1 -55 -47 0
1 72 26 0
1 -72 -26 0
1 74 49 0
1 -74 -49 0
1 74 93 0
1 -74 -93 0
1 32 84 0
1 -32 -84 0
1 114 78 0
1 -114 -78 0
1 11 135 0
1 -11 -135 0
1 23 116 0
1 -23 -116 0
1 65 15 0
1 -65 -15 0
1 39 19 0
1 -39 -19 0
1 91 49 0
1 -91 -49 0
1 103 84 0
1 -103 -84 0
1 120 22 0
1 -120 -22 0
1 31 101 0
1 -31 -101 0
1 53 117 0
1 -53 -117 0
1 43 121 0
1 -43 -121 0
1 1 109 0
1 -1 -109 0
1 115 34 0
1 -115 -34 0
1 43 102 0
1 -43 -102 0
1 56 89 0
1 -56 -89 0
1 22 135 0
1 -22 -135 0
1 120 15 0
1 -120 -15 0
1 139 126 0
1 -139 -126 0
1 91 61 0
1 -91 -61 0
1 48 46 0
1 -48 -46 0
1 67 8 0
1 -67 -8 0
1 114 29 0
1 -114 -29 0
1 125 130 0
1 -125 -130 0
1 36 110 0
1 -36 -110 0
1 32 91 0
1 -32 -91 0
1 56 62 0
1 -56 -62 0
1 59 1 0
1 -59 -1 0
1 10 112 0
1 -10 -112 0
1 8 52 0
1 -8 -52 0
1 122 111 0
1 -122 -111 0
1 59 111 0
1 -59 -111 0
1 87 35 0
1 -87 -35 0
1 82 54 0
1 -82 -54 0
1 74 135 0
1 -74 -135 0
1 20 75 0
1 -20 -75 0
1 31 18 0
1 -31 -18 0
1 58 46 0
1 -58 -46 0
1 23 138 0
1 -23 -138 0
1 125 92 0
1 -125 -92 0
1 109 137 0
1 -109 -137 0
1 50 132 0
1 -50 -132 0
1 101 52 0
1 -101 -52 0
1 6 62 0
1 -6 -62 0
1 50 118 0
1 -50 -118 0
1 86 46 0
1 -86 -46 0
1 71 67 0
1 -71 -67 0
1 27 92 0
1 -27 -92 0
1 122 81 0
1 -122 -81 0
1 57 74 0
1 -57 -74 0
1 130 128 0
1 -130 -128 0
1 129 73 0
1 -129 -73 0
1 65 51 0
1 -65 -51 0
1 71 118 0
1 -71 -118 0
1 18 24 0
1 -18 -24 0
1 11 14 0
1 -11 -14 0
1 35 44 0
1 -35 -44 0
1 19 29 0
1 -19 -29 0
1 4 92 0
1 -4 -92 0
1 118 62 0
1 -118 -62 0
1 133 118 0
1 -133 -118 0
1 54 96 0
1 -54 -96 0
1 41 72 0
1 -41 -72 0
1 76 136 0
1 -76 -136 0
1 26 119 0
1 -26 -119 0
1 85 114 0
1 -85 -114 0
1 51 52 0
1 -51 -52 0
1 46 130 0
1 -46 -130 0
1 83 8 0
1 -83 -8 0
1 126 137 0
1 -126 -137 0
1 12 67 0
1 -12 -67 0
1 69 25 0
1 -69 -25 0
1 133 7 0
1 -133 -7 0
1 95 6 0
1 -95 -6 0
1 120 115 0
1 -120 -115 0
1 70 83 0
1 -70 -83 0
1 123 77 0
1 -123 -77 0
1 54 52 0
1 -54 -52 0
1 106 58 0
1 -106 -58 0
1 5 95 0
1 -5 -95 0
1 95 137 0
1 -95 -137 0
1 9 91 0
1 -9 -91 0
1 68 60 0
1 -68 -60 0
1 90 2 0
1 -90 -2 0
1 41 126 0
1 -41 -126 0
1 2 3 0
1 -2 -3 0
1 97 83 0
1 -97 -83 0
1 22 116 0
1 -22 -116 0
1 38 7 0
1 -38 -7 0
1 38 102 0
1 -38 -102 0
1 28 52 0
1 -28 -52 0
1 85 79 0
1 -85 -79 0
1 55 48 0
1 -55 -48 0
1 36 117 0
1 -36 -117 0
1 4 130 0
1 -4 -130 0
1 136 119 0
1 -136 -119 0
1 46 128 0
1 -46 -128 0
1 45 119 0
1 -45 -119 0
1 98 126 0
1 -98 -126 0
1 129 60 0
1 -129 -60 0
1 57 37 0
1 -57 -37 0
1 125 77 0
1 -125 -77 0
1 5 111 0
1 -5 -111 0
1 45 37 0
1 -45 -37 0
1 113 125 0
1 -113 -125 0
1 28 80 0
1 -28 -80 0
1 105 67 0
1 -105 -67 0
1 120 83 0
1 -120 -83 0
1 103 113 0
1 -103 -113 0
1 65 50 0
1 -65 -50 0
1 103 33 0
1 -103 -33 0
1 68 7 0
1 -68 -7 0
1 41 108 0
1 -41 -108 0
1 120 74 0
1 -120 -74 0
1 48 47 0
1 -48 -47 0
1 103 127 0
1 -103 -127 0
1 89 61 0
1 -89 -61 0
1 70 6 0
1 -70 -6 0
1 64 49 0
1 -64 -49 0
1 32 92 0
1 -32 -92 0
1 125 71 0
1 -125 -71 0
1 24 100 0
1 -24 -100 0
1 41 48 0
1 -41 -48 0
1 29 128 0
1 -29 -128 0
1 120 25 0
1 -120 -25 0
1 34 42 0
1 -34 -42 0
1 130 49 0
1 -130 -49 0
1 85 52 0
1 -85 -52 0
1 79 13 0
1 -79 -13 0
1 65 42 0
1 -65 -42 0
1 6 11 0
1 -6 -11 0
